nNurses = 157;
nHours = 28;
minHours = 10;
maxHours = 20;
maxConsec = 10;
maxPresence = 8;
demand = [40, 40, 38, 36, 34, 33, 34, 39, 40, 35, 32, 36, 36, 35, 36, 40, 35, 37, 36, 32, 37, 33, 37, 39, 39, 35, 38, 35];
